\ENCODING=ISO-8859-1
\Problem name: 

Minimize
 obj: 4 y01 + 3 y02 + 10 y03 + 20 y04 + 24 y05 + 34 y06 + 61 y07 + 9 y08
      + 9 y09 + 5 y010 + 8 y011 + 4 y10 + 2 y12 + 8 y13 + 18 y14 + 21 y15
      + 31 y16 + 58 y17 + 5 y18 + 7 y19 + 2 y110 + 8 y111 + 3 y20 + 2 y21
      + 8 y23 + 17 y24 + 21 y25 + 31 y26 + 58 y27 + 6 y28 + 6 y29 + 2 y210
      + 7 y211 + 10 y30 + 8 y31 + 8 y32 + 10 y34 + 14 y35 + 24 y36 + 52 y37
      + 3 y38 + 2 y39 + 6 y310 + 8 y311 + 20 y40 + 18 y41 + 17 y42 + 10 y43
      + 6 y45 + 15 y46 + 45 y47 + 13 y48 + 12 y49 + 16 y410 + 16 y411 + 24 y50
      + 21 y51 + 21 y52 + 14 y53 + 6 y54 + 16 y56 + 46 y57 + 17 y58 + 15 y59
      + 19 y510 + 18 y511 + 34 y60 + 31 y61 + 31 y62 + 24 y63 + 15 y64 + 16 y65
      + 31 y67 + 26 y68 + 26 y69 + 30 y610 + 30 y611 + 61 y70 + 58 y71 + 58 y72
      + 52 y73 + 45 y74 + 46 y75 + 31 y76 + 53 y78 + 54 y79 + 57 y710 + 59 y711
      + 9 y80 + 5 y81 + 6 y82 + 3 y83 + 13 y84 + 17 y85 + 26 y86 + 53 y87
      + 4 y89 + 5 y810 + 9 y811 + 9 y90 + 7 y91 + 6 y92 + 2 y93 + 12 y94
      + 15 y95 + 26 y96 + 54 y97 + 4 y98 + 5 y910 + 6 y911 + 5 y100 + 2 y101
      + 2 y102 + 6 y103 + 16 y104 + 19 y105 + 30 y106 + 57 y107 + 5 y108
      + 5 y109 + 6 y1011 + 8 y110 + 8 y111 + 7 y112 + 8 y113 + 16 y114
      + 18 y115 + 30 y116 + 59 y117 + 9 y118 + 6 y119 + 6 y1110
Subject To
 c1:   x01 + x02 + x03 + x04 + x05 + x06 + x07 + x08 + x09 + x010 + x011  = 12
 c2:   x01 - x10 - x12 - x13 - x14 - x15 - x16 - x17 - x18 - x19 - x110 - x111
       + x21 + x31 + x41 + x51 + x61 + x71 + x81 + x91 + x101 + x111  = 1
 c3:   x02 + x12 - x20 - x21 - x23 - x24 - x25 - x26 - x27 - x28 - x29 - x210
       - x211 + x32 + x42 + x52 + x62 + x72 + x82 + x92 + x102 + x112  = 1
 c4:   x03 + x13 + x23 - x30 - x31 - x32 - x34 - x35 - x36 - x37 - x38 - x39
       - x310 - x311 + x43 + x53 + x63 + x73 + x83 + x93 + x103 + x113  = 1
 c5:   x04 + x14 + x24 + x34 - x40 - x41 - x42 - x43 - x45 - x46 - x47 - x48
       - x49 - x410 - x411 + x54 + x64 + x74 + x84 + x94 + x104 + x114  = 1
 c6:   x05 + x15 + x25 + x35 + x45 - x50 - x51 - x52 - x53 - x54 - x56 - x57
       - x58 - x59 - x510 - x511 + x65 + x75 + x85 + x95 + x105 + x115  = 1
 c7:   x06 + x16 + x26 + x36 + x46 + x56 - x60 - x61 - x62 - x63 - x64 - x65
       - x67 - x68 - x69 - x610 - x611 + x76 + x86 + x96 + x106 + x116  = 1
 c8:   x07 + x17 + x27 + x37 + x47 + x57 + x67 - x70 - x71 - x72 - x73 - x74
       - x75 - x76 - x78 - x79 - x710 - x711 + x87 + x97 + x107 + x117  = 1
 c9:   x08 + x18 + x28 + x38 + x48 + x58 + x68 + x78 - x80 - x81 - x82 - x83
       - x84 - x85 - x86 - x87 - x89 - x810 - x811 + x98 + x108 + x118  = 1
 c10:  x09 + x19 + x29 + x39 + x49 + x59 + x69 + x79 + x89 - x90 - x91 - x92
       - x93 - x94 - x95 - x96 - x97 - x98 - x910 - x911 + x109 + x119  = 1
 c11:  x010 + x110 + x210 + x310 + x410 + x510 + x610 + x710 + x810 + x910
       - x100 - x101 - x102 - x103 - x104 - x105 - x106 - x107 - x108 - x109
       - x1011 + x1110  = 1
 c12:  x011 + x111 + x211 + x311 + x411 + x511 + x611 + x711 + x811 + x911
       + x1011 - x110 - x111 - x112 - x113 - x114 - x115 - x116 - x117 - x118
       - x119 - x1110  = 1
 c13:  y01 + y02 + y03 + y04 + y05 + y06 + y07 + y08 + y09 + y010 + y011  = 1
 c14:  y10 + y12 + y13 + y14 + y15 + y16 + y17 + y18 + y19 + y110 + y111  = 1
 c15:  y20 + y21 + y23 + y24 + y25 + y26 + y27 + y28 + y29 + y210 + y211  = 1
 c16:  y30 + y31 + y32 + y34 + y35 + y36 + y37 + y38 + y39 + y310 + y311  = 1
 c17:  y40 + y41 + y42 + y43 + y45 + y46 + y47 + y48 + y49 + y410 + y411  = 1
 c18:  y50 + y51 + y52 + y53 + y54 + y56 + y57 + y58 + y59 + y510 + y511  = 1
 c19:  y60 + y61 + y62 + y63 + y64 + y65 + y67 + y68 + y69 + y610 + y611  = 1
 c20:  y70 + y71 + y72 + y73 + y74 + y75 + y76 + y78 + y79 + y710 + y711  = 1
 c21:  y80 + y81 + y82 + y83 + y84 + y85 + y86 + y87 + y89 + y810 + y811  = 1
 c22:  y90 + y91 + y92 + y93 + y94 + y95 + y96 + y97 + y98 + y910 + y911  = 1
 c23:  y100 + y101 + y102 + y103 + y104 + y105 + y106 + y107 + y108 + y109
       + y1011  = 1
 c24:  y110 + y111 + y112 + y113 + y114 + y115 + y116 + y117 + y118 + y119
       + y1110  = 1
 c25:  y10 + y20 + y30 + y40 + y50 + y60 + y70 + y80 + y90 + y100 + y110  = 1
 c26:  y01 + y21 + y31 + y41 + y51 + y61 + y71 + y81 + y91 + y101 + y111  = 1
 c27:  y02 + y12 + y32 + y42 + y52 + y62 + y72 + y82 + y92 + y102 + y112  = 1
 c28:  y03 + y13 + y23 + y43 + y53 + y63 + y73 + y83 + y93 + y103 + y113  = 1
 c29:  y04 + y14 + y24 + y34 + y54 + y64 + y74 + y84 + y94 + y104 + y114  = 1
 c30:  y05 + y15 + y25 + y35 + y45 + y65 + y75 + y85 + y95 + y105 + y115  = 1
 c31:  y06 + y16 + y26 + y36 + y46 + y56 + y76 + y86 + y96 + y106 + y116  = 1
 c32:  y07 + y17 + y27 + y37 + y47 + y57 + y67 + y87 + y97 + y107 + y117  = 1
 c33:  y08 + y18 + y28 + y38 + y48 + y58 + y68 + y78 + y98 + y108 + y118  = 1
 c34:  y09 + y19 + y29 + y39 + y49 + y59 + y69 + y79 + y89 + y109 + y119  = 1
 c35:  y010 + y110 + y210 + y310 + y410 + y510 + y610 + y710 + y810 + y910
       + y1110  = 1
 c36:  y011 + y111 + y211 + y311 + y411 + y511 + y611 + y711 + y811 + y911
       + y1011  = 1
 c37:  x01 - 12 y01 <= 0
 c38:  x02 - 12 y02 <= 0
 c39:  x03 - 12 y03 <= 0
 c40:  x04 - 12 y04 <= 0
 c41:  x05 - 12 y05 <= 0
 c42:  x06 - 12 y06 <= 0
 c43:  x07 - 12 y07 <= 0
 c44:  x08 - 12 y08 <= 0
 c45:  x09 - 12 y09 <= 0
 c46:  x010 - 12 y010 <= 0
 c47:  x011 - 12 y011 <= 0
 c48:  x10 - 12 y10 <= 0
 c49:  x12 - 12 y12 <= 0
 c50:  x13 - 12 y13 <= 0
 c51:  x14 - 12 y14 <= 0
 c52:  x15 - 12 y15 <= 0
 c53:  x16 - 12 y16 <= 0
 c54:  x17 - 12 y17 <= 0
 c55:  x18 - 12 y18 <= 0
 c56:  x19 - 12 y19 <= 0
 c57:  x110 - 12 y110 <= 0
 c58:  x111 - 12 y111 <= 0
 c59:  x20 - 12 y20 <= 0
 c60:  x21 - 12 y21 <= 0
 c61:  x23 - 12 y23 <= 0
 c62:  x24 - 12 y24 <= 0
 c63:  x25 - 12 y25 <= 0
 c64:  x26 - 12 y26 <= 0
 c65:  x27 - 12 y27 <= 0
 c66:  x28 - 12 y28 <= 0
 c67:  x29 - 12 y29 <= 0
 c68:  x210 - 12 y210 <= 0
 c69:  x211 - 12 y211 <= 0
 c70:  x30 - 12 y30 <= 0
 c71:  x31 - 12 y31 <= 0
 c72:  x32 - 12 y32 <= 0
 c73:  x34 - 12 y34 <= 0
 c74:  x35 - 12 y35 <= 0
 c75:  x36 - 12 y36 <= 0
 c76:  x37 - 12 y37 <= 0
 c77:  x38 - 12 y38 <= 0
 c78:  x39 - 12 y39 <= 0
 c79:  x310 - 12 y310 <= 0
 c80:  x311 - 12 y311 <= 0
 c81:  x40 - 12 y40 <= 0
 c82:  x41 - 12 y41 <= 0
 c83:  x42 - 12 y42 <= 0
 c84:  x43 - 12 y43 <= 0
 c85:  x45 - 12 y45 <= 0
 c86:  x46 - 12 y46 <= 0
 c87:  x47 - 12 y47 <= 0
 c88:  x48 - 12 y48 <= 0
 c89:  x49 - 12 y49 <= 0
 c90:  x410 - 12 y410 <= 0
 c91:  x411 - 12 y411 <= 0
 c92:  x50 - 12 y50 <= 0
 c93:  x51 - 12 y51 <= 0
 c94:  x52 - 12 y52 <= 0
 c95:  x53 - 12 y53 <= 0
 c96:  x54 - 12 y54 <= 0
 c97:  x56 - 12 y56 <= 0
 c98:  x57 - 12 y57 <= 0
 c99:  x58 - 12 y58 <= 0
 c100: x59 - 12 y59 <= 0
 c101: x510 - 12 y510 <= 0
 c102: x511 - 12 y511 <= 0
 c103: x60 - 12 y60 <= 0
 c104: x61 - 12 y61 <= 0
 c105: x62 - 12 y62 <= 0
 c106: x63 - 12 y63 <= 0
 c107: x64 - 12 y64 <= 0
 c108: x65 - 12 y65 <= 0
 c109: x67 - 12 y67 <= 0
 c110: x68 - 12 y68 <= 0
 c111: x69 - 12 y69 <= 0
 c112: x610 - 12 y610 <= 0
 c113: x611 - 12 y611 <= 0
 c114: x70 - 12 y70 <= 0
 c115: x71 - 12 y71 <= 0
 c116: x72 - 12 y72 <= 0
 c117: x73 - 12 y73 <= 0
 c118: x74 - 12 y74 <= 0
 c119: x75 - 12 y75 <= 0
 c120: x76 - 12 y76 <= 0
 c121: x78 - 12 y78 <= 0
 c122: x79 - 12 y79 <= 0
 c123: x710 - 12 y710 <= 0
 c124: x711 - 12 y711 <= 0
 c125: x80 - 12 y80 <= 0
 c126: x81 - 12 y81 <= 0
 c127: x82 - 12 y82 <= 0
 c128: x83 - 12 y83 <= 0
 c129: x84 - 12 y84 <= 0
 c130: x85 - 12 y85 <= 0
 c131: x86 - 12 y86 <= 0
 c132: x87 - 12 y87 <= 0
 c133: x89 - 12 y89 <= 0
 c134: x810 - 12 y810 <= 0
 c135: x811 - 12 y811 <= 0
 c136: x90 - 12 y90 <= 0
 c137: x91 - 12 y91 <= 0
 c138: x92 - 12 y92 <= 0
 c139: x93 - 12 y93 <= 0
 c140: x94 - 12 y94 <= 0
 c141: x95 - 12 y95 <= 0
 c142: x96 - 12 y96 <= 0
 c143: x97 - 12 y97 <= 0
 c144: x98 - 12 y98 <= 0
 c145: x910 - 12 y910 <= 0
 c146: x911 - 12 y911 <= 0
 c147: x100 - 12 y100 <= 0
 c148: x101 - 12 y101 <= 0
 c149: x102 - 12 y102 <= 0
 c150: x103 - 12 y103 <= 0
 c151: x104 - 12 y104 <= 0
 c152: x105 - 12 y105 <= 0
 c153: x106 - 12 y106 <= 0
 c154: x107 - 12 y107 <= 0
 c155: x108 - 12 y108 <= 0
 c156: x109 - 12 y109 <= 0
 c157: x1011 - 12 y1011 <= 0
 c158: x110 - 12 y110 <= 0
 c159: x111 - 12 y111 <= 0
 c160: x112 - 12 y112 <= 0
 c161: x113 - 12 y113 <= 0
 c162: x114 - 12 y114 <= 0
 c163: x115 - 12 y115 <= 0
 c164: x116 - 12 y116 <= 0
 c165: x117 - 12 y117 <= 0
 c166: x118 - 12 y118 <= 0
 c167: x119 - 12 y119 <= 0
 c168: x1110 - 12 y1110 <= 0
Bounds
      x01 >= 0
      x02 >= 0
      x03 >= 0
      x04 >= 0
      x05 >= 0
      x06 >= 0
      x07 >= 0
      x08 >= 0
      x09 >= 0
      x010 >= 0
      x011 >= 0
      x10 >= 0
      x12 >= 0
      x13 >= 0
      x14 >= 0
      x15 >= 0
      x16 >= 0
      x17 >= 0
      x18 >= 0
      x19 >= 0
      x110 >= 0
      x111 >= 0
      x20 >= 0
      x21 >= 0
      x23 >= 0
      x24 >= 0
      x25 >= 0
      x26 >= 0
      x27 >= 0
      x28 >= 0
      x29 >= 0
      x210 >= 0
      x211 >= 0
      x30 >= 0
      x31 >= 0
      x32 >= 0
      x34 >= 0
      x35 >= 0
      x36 >= 0
      x37 >= 0
      x38 >= 0
      x39 >= 0
      x310 >= 0
      x311 >= 0
      x40 >= 0
      x41 >= 0
      x42 >= 0
      x43 >= 0
      x45 >= 0
      x46 >= 0
      x47 >= 0
      x48 >= 0
      x49 >= 0
      x410 >= 0
      x411 >= 0
      x50 >= 0
      x51 >= 0
      x52 >= 0
      x53 >= 0
      x54 >= 0
      x56 >= 0
      x57 >= 0
      x58 >= 0
      x59 >= 0
      x510 >= 0
      x511 >= 0
      x60 >= 0
      x61 >= 0
      x62 >= 0
      x63 >= 0
      x64 >= 0
      x65 >= 0
      x67 >= 0
      x68 >= 0
      x69 >= 0
      x610 >= 0
      x611 >= 0
      x70 >= 0
      x71 >= 0
      x72 >= 0
      x73 >= 0
      x74 >= 0
      x75 >= 0
      x76 >= 0
      x78 >= 0
      x79 >= 0
      x710 >= 0
      x711 >= 0
      x80 >= 0
      x81 >= 0
      x82 >= 0
      x83 >= 0
      x84 >= 0
      x85 >= 0
      x86 >= 0
      x87 >= 0
      x89 >= 0
      x810 >= 0
      x811 >= 0
      x90 >= 0
      x91 >= 0
      x92 >= 0
      x93 >= 0
      x94 >= 0
      x95 >= 0
      x96 >= 0
      x97 >= 0
      x98 >= 0
      x910 >= 0
      x911 >= 0
      x100 >= 0
      x101 >= 0
      x102 >= 0
      x103 >= 0
      x104 >= 0
      x105 >= 0
      x106 >= 0
      x107 >= 0
      x108 >= 0
      x109 >= 0
      x1011 >= 0
      x110 >= 0
      x111 >= 0
      x112 >= 0
      x113 >= 0
      x114 >= 0
      x115 >= 0
      x116 >= 0
      x117 >= 0
      x118 >= 0
      x119 >= 0
      x1110 >= 0
 0 <= y01 <= 1
 0 <= y02 <= 1
 0 <= y03 <= 1
 0 <= y04 <= 1
 0 <= y05 <= 1
 0 <= y06 <= 1
 0 <= y07 <= 1
 0 <= y08 <= 1
 0 <= y09 <= 1
 0 <= y010 <= 1
 0 <= y011 <= 1
 0 <= y10 <= 1
 0 <= y12 <= 1
 0 <= y13 <= 1
 0 <= y14 <= 1
 0 <= y15 <= 1
 0 <= y16 <= 1
 0 <= y17 <= 1
 0 <= y18 <= 1
 0 <= y19 <= 1
 0 <= y110 <= 1
 0 <= y111 <= 1
 0 <= y20 <= 1
 0 <= y21 <= 1
 0 <= y23 <= 1
 0 <= y24 <= 1
 0 <= y25 <= 1
 0 <= y26 <= 1
 0 <= y27 <= 1
 0 <= y28 <= 1
 0 <= y29 <= 1
 0 <= y210 <= 1
 0 <= y211 <= 1
 0 <= y30 <= 1
 0 <= y31 <= 1
 0 <= y32 <= 1
 0 <= y34 <= 1
 0 <= y35 <= 1
 0 <= y36 <= 1
 0 <= y37 <= 1
 0 <= y38 <= 1
 0 <= y39 <= 1
 0 <= y310 <= 1
 0 <= y311 <= 1
 0 <= y40 <= 1
 0 <= y41 <= 1
 0 <= y42 <= 1
 0 <= y43 <= 1
 0 <= y45 <= 1
 0 <= y46 <= 1
 0 <= y47 <= 1
 0 <= y48 <= 1
 0 <= y49 <= 1
 0 <= y410 <= 1
 0 <= y411 <= 1
 0 <= y50 <= 1
 0 <= y51 <= 1
 0 <= y52 <= 1
 0 <= y53 <= 1
 0 <= y54 <= 1
 0 <= y56 <= 1
 0 <= y57 <= 1
 0 <= y58 <= 1
 0 <= y59 <= 1
 0 <= y510 <= 1
 0 <= y511 <= 1
 0 <= y60 <= 1
 0 <= y61 <= 1
 0 <= y62 <= 1
 0 <= y63 <= 1
 0 <= y64 <= 1
 0 <= y65 <= 1
 0 <= y67 <= 1
 0 <= y68 <= 1
 0 <= y69 <= 1
 0 <= y610 <= 1
 0 <= y611 <= 1
 0 <= y70 <= 1
 0 <= y71 <= 1
 0 <= y72 <= 1
 0 <= y73 <= 1
 0 <= y74 <= 1
 0 <= y75 <= 1
 0 <= y76 <= 1
 0 <= y78 <= 1
 0 <= y79 <= 1
 0 <= y710 <= 1
 0 <= y711 <= 1
 0 <= y80 <= 1
 0 <= y81 <= 1
 0 <= y82 <= 1
 0 <= y83 <= 1
 0 <= y84 <= 1
 0 <= y85 <= 1
 0 <= y86 <= 1
 0 <= y87 <= 1
 0 <= y89 <= 1
 0 <= y810 <= 1
 0 <= y811 <= 1
 0 <= y90 <= 1
 0 <= y91 <= 1
 0 <= y92 <= 1
 0 <= y93 <= 1
 0 <= y94 <= 1
 0 <= y95 <= 1
 0 <= y96 <= 1
 0 <= y97 <= 1
 0 <= y98 <= 1
 0 <= y910 <= 1
 0 <= y911 <= 1
 0 <= y100 <= 1
 0 <= y101 <= 1
 0 <= y102 <= 1
 0 <= y103 <= 1
 0 <= y104 <= 1
 0 <= y105 <= 1
 0 <= y106 <= 1
 0 <= y107 <= 1
 0 <= y108 <= 1
 0 <= y109 <= 1
 0 <= y1011 <= 1
 0 <= y110 <= 1
 0 <= y111 <= 1
 0 <= y112 <= 1
 0 <= y113 <= 1
 0 <= y114 <= 1
 0 <= y115 <= 1
 0 <= y116 <= 1
 0 <= y117 <= 1
 0 <= y118 <= 1
 0 <= y119 <= 1
 0 <= y1110 <= 1
Binaries
 y01  y02  y03  y04  y05  y06  y07  y08  y09  y010  y011  y10  y12  y13  y14 
 y15  y16  y17  y18  y19  y110  y111  y20  y21  y23  y24  y25  y26  y27  y28 
 y29  y210  y211  y30  y31  y32  y34  y35  y36  y37  y38  y39  y310  y311  y40 
 y41  y42  y43  y45  y46  y47  y48  y49  y410  y411  y50  y51  y52  y53  y54 
 y56  y57  y58  y59  y510  y511  y60  y61  y62  y63  y64  y65  y67  y68  y69 
 y610  y611  y70  y71  y72  y73  y74  y75  y76  y78  y79  y710  y711  y80  y81 
 y82  y83  y84  y85  y86  y87  y89  y810  y811  y90  y91  y92  y93  y94  y95 
 y96  y97  y98  y910  y911  y100  y101  y102  y103  y104  y105  y106  y107 
 y108  y109  y1011  y110  y111  y112  y113  y114  y115  y116  y117  y118  y119 
 y1110 
Generals
 x01  x02  x03  x04  x05  x06  x07  x08  x09  x010  x011  x10  x12  x13  x14 
 x15  x16  x17  x18  x19  x110  x111  x20  x21  x23  x24  x25  x26  x27  x28 
 x29  x210  x211  x30  x31  x32  x34  x35  x36  x37  x38  x39  x310  x311  x40 
 x41  x42  x43  x45  x46  x47  x48  x49  x410  x411  x50  x51  x52  x53  x54 
 x56  x57  x58  x59  x510  x511  x60  x61  x62  x63  x64  x65  x67  x68  x69 
 x610  x611  x70  x71  x72  x73  x74  x75  x76  x78  x79  x710  x711  x80  x81 
 x82  x83  x84  x85  x86  x87  x89  x810  x811  x90  x91  x92  x93  x94  x95 
 x96  x97  x98  x910  x911  x100  x101  x102  x103  x104  x105  x106  x107 
 x108  x109  x1011  x110  x111  x112  x113  x114  x115  x116  x117  x118  x119 
 x1110 
End
